Version identifier: 20.1.0.0 | 2020-11-10 | 9bedb6d68
Tried aggregator 2 times.
MIP Presolve eliminated 1288 rows and 672 columns.
MIP Presolve modified 3138 coefficients.
Aggregator did 121 substitutions.
Reduced MIP has 1800 rows, 1422 columns, and 5886 nonzeros.
Reduced MIP has 281 binaries, 1141 generals, 0 SOSs, and 0 indicators.
Presolve time = 0.02 sec. (7.40 ticks)
Found incumbent of value 1839.000000 after 0.03 sec. (14.57 ticks)
Probing fixed 40 vars, tightened 450 bounds.
Probing time = 0.00 sec. (1.24 ticks)
Tried aggregator 2 times.
MIP Presolve eliminated 774 rows and 106 columns.
MIP Presolve modified 185 coefficients.
Aggregator did 44 substitutions.
Reduced MIP has 982 rows, 1272 columns, and 3192 nonzeros.
Reduced MIP has 465 binaries, 807 generals, 0 SOSs, and 0 indicators.
Presolve time = 0.01 sec. (4.35 ticks)
Probing time = 0.00 sec. (0.32 ticks)
Tried aggregator 1 time.
Detecting symmetries...
MIP Presolve modified 361 coefficients.
Reduced MIP has 982 rows, 1272 columns, and 3192 nonzeros.
Reduced MIP has 465 binaries, 807 generals, 0 SOSs, and 0 indicators.
Presolve time = 0.01 sec. (2.54 ticks)
Probing time = 0.00 sec. (0.31 ticks)
Clique table members: 85.
MIP emphasis: balance optimality and feasibility.
MIP search method: dynamic search.
Parallel mode: deterministic, using up to 24 threads.
Root relaxation solution time = 0.01 sec. (2.24 ticks)

        Nodes                                         Cuts/
   Node  Left     Objective  IInf  Best Integer    Best Bound    ItCnt     Gap

*     0+    0                         1839.0000        0.0000           100.00%
*     0+    0                           34.0000        0.0000           100.00%
      0     0        0.0000    54       34.0000        0.0000      248  100.00%
      0     0        0.1429   137       34.0000     Cuts: 113      552   99.58%
      0     0        1.0000   117       34.0000     Cuts: 180      717   97.06%
      0     0        1.0000   141       34.0000      Cuts: 75      797   97.06%
*     0+    0                           10.0000        1.0000            90.00%
      0     0        1.0000   152       10.0000      Cuts: 59      890   90.00%
*     0+    0                            9.0000        1.0000            88.89%
*     0+    0                            7.0000        1.0000            85.71%
      0     0        cutoff              7.0000        7.0000      890    0.00%
Elapsed time = 2.14 sec. (133.65 ticks, tree = 0.01 MB, solutions = 5)

Cover cuts applied:  3
Implied bound cuts applied:  46
Flow cuts applied:  2
Mixed integer rounding cuts applied:  13
Zero-half cuts applied:  91
Lift and project cuts applied:  10
Gomory fractional cuts applied:  26

Root node processing (before b&c):
  Real time             =    2.14 sec. (133.79 ticks)
Parallel b&c, 24 threads:
  Real time             =    0.00 sec. (0.00 ticks)
  Sync time (average)   =    0.00 sec.
  Wait time (average)   =    0.00 sec.
                          ------------
Total (root+branch&cut) =    2.14 sec. (133.79 ticks)

Solution status = Optimal
Solution LB = 7
Solution UB = 7
Runtime = 2.14827 seconds
	Command being timed: "/home/min/git_repos/CS598MEBProject/CNT-ILP/build/cnt -s 2 ./output/k8_n20/simC_c1_k8_n20_u1_s3_del04.input-left.cnp"
	User time (seconds): 34.98
	System time (seconds): 0.12
	Percent of CPU this job got: 1601%
	Elapsed (wall clock) time (h:mm:ss or m:ss): 0:02.19
	Average shared text size (kbytes): 0
	Average unshared data size (kbytes): 0
	Average stack size (kbytes): 0
	Average total size (kbytes): 0
	Maximum resident set size (kbytes): 86444
	Average resident set size (kbytes): 0
	Major (requiring I/O) page faults: 0
	Minor (reclaiming a frame) page faults: 26864
	Voluntary context switches: 6707
	Involuntary context switches: 4779
	Swaps: 0
	File system inputs: 0
	File system outputs: 16
	Socket messages sent: 0
	Socket messages received: 0
	Signals delivered: 0
	Page size (bytes): 4096
	Exit status: 0
